p edge 148 1381
v 1 223
v 2 413
v 3 307
v 4 659
v 5 539
v 6 456
v 7 692
v 8 427
v 9 265
v 10 563
v 11 466
v 12 673
v 13 496
v 14 396
v 15 552
v 16 533
v 17 434
v 18 572
v 19 310
v 20 286
v 21 280
v 22 682
v 23 481
v 24 226
v 25 418
v 26 422
v 27 485
v 28 681
v 29 566
v 30 242
v 31 420
v 32 702
v 33 495
v 34 640
v 35 487
v 36 367
v 37 235
v 38 212
v 39 201
v 40 662
v 41 617
v 42 481
v 43 359
v 44 636
v 45 479
v 46 470
v 47 511
v 48 252
v 49 238
v 50 568
v 51 364
v 52 651
v 53 342
v 54 496
v 55 684
v 56 334
v 57 353
v 58 210
v 59 665
v 60 462
v 61 431
v 62 495
v 63 215
v 64 338
v 65 583
v 66 495
v 67 475
v 68 521
v 69 539
v 70 383
v 71 684
v 72 505
v 73 635
v 74 552
v 75 303
v 76 301
v 77 216
v 78 296
v 79 448
v 80 239
v 81 471
v 82 516
v 83 460
v 84 441
v 85 685
v 86 599
v 87 491
v 88 453
v 89 541
v 90 563
v 91 683
v 92 620
v 93 555
v 94 498
v 95 250
v 96 595
v 97 345
v 98 689
v 99 593
v 100 396
v 101 521
v 102 642
v 103 262
v 104 670
v 105 298
v 106 677
v 107 674
v 108 670
v 109 418
v 110 321
v 111 391
v 112 614
v 113 432
v 114 580
v 115 485
v 116 402
v 117 273
v 118 421
v 119 534
v 120 321
v 121 452
v 122 232
v 123 520
v 124 407
v 125 400
v 126 636
v 127 509
v 128 702
v 129 253
v 130 377
v 131 387
v 132 271
v 133 435
v 134 238
v 135 454
v 136 418
v 137 455
v 138 245
v 139 503
v 140 589
v 141 541
v 142 553
v 143 530
v 144 318
v 145 520
v 146 679
v 147 414
v 148 209
e 1 2
e 1 3
e 1 4
e 1 5
e 1 6
e 1 7
e 1 8
e 1 12
e 1 24
e 1 47
e 1 57
e 1 78
e 1 110
e 1 119
e 1 126
e 2 3
e 2 4
e 2 5
e 2 6
e 2 7
e 2 8
e 2 14
e 2 37
e 2 59
e 2 90
e 2 101
e 2 112
e 2 120
e 2 138
e 2 142
e 3 4
e 3 5
e 3 6
e 3 7
e 3 8
e 3 26
e 3 38
e 3 60
e 3 71
e 3 80
e 3 91
e 3 113
e 3 128
e 3 139
e 3 143
e 4 5
e 4 6
e 4 7
e 4 8
e 4 15
e 4 27
e 4 39
e 4 49
e 4 61
e 4 72
e 4 81
e 4 92
e 4 102
e 4 129
e 4 144
e 5 6
e 5 7
e 5 8
e 5 16
e 5 28
e 5 40
e 5 50
e 5 62
e 5 73
e 5 82
e 5 103
e 5 114
e 5 121
e 5 130
e 5 145
e 6 7
e 6 8
e 6 19
e 6 30
e 6 51
e 6 64
e 6 105
e 6 147
e 7 8
e 7 20
e 7 31
e 7 43
e 7 52
e 7 65
e 7 84
e 7 95
e 7 106
e 7 116
e 7 133
e 8 22
e 8 32
e 8 53
e 8 74
e 8 86
e 8 97
e 8 108
e 8 134
e 8 148
e 9 10
e 9 11
e 9 12
e 9 13
e 9 14
e 9 15
e 9 16
e 9 17
e 9 18
e 9 19
e 9 20
e 9 21
e 9 22
e 9 23
e 9 33
e 9 44
e 9 54
e 9 67
e 9 75
e 9 87
e 9 98
e 9 109
e 9 117
e 10 11
e 10 12
e 10 13
e 10 14
e 10 15
e 10 16
e 10 17
e 10 18
e 10 19
e 10 20
e 10 21
e 10 22
e 10 34
e 10 45
e 10 55
e 10 68
e 10 76
e 10 88
e 10 124
e 10 135
e 11 12
e 11 13
e 11 14
e 11 15
e 11 16
e 11 17
e 11 18
e 11 19
e 11 20
e 11 21
e 11 22
e 11 35
e 11 46
e 11 56
e 11 69
e 11 77
e 11 99
e 11 118
e 11 125
e 11 136
e 11 141
e 12 13
e 12 14
e 12 15
e 12 16
e 12 17
e 12 18
e 12 19
e 12 20
e 12 21
e 12 22
e 12 24
e 12 47
e 12 57
e 12 78
e 12 110
e 12 119
e 12 126
e 13 14
e 13 15
e 13 16
e 13 17
e 13 18
e 13 19
e 13 20
e 13 21
e 13 22
e 13 25
e 13 36
e 13 48
e 13 58
e 13 70
e 13 79
e 13 89
e 13 100
e 13 111
e 13 127
e 13 137
e 14 15
e 14 16
e 14 17
e 14 18
e 14 19
e 14 20
e 14 21
e 14 22
e 14 37
e 14 59
e 14 90
e 14 101
e 14 112
e 14 120
e 14 138
e 14 142
e 15 16
e 15 17
e 15 18
e 15 19
e 15 20
e 15 21
e 15 22
e 15 27
e 15 39
e 15 49
e 15 61
e 15 72
e 15 81
e 15 92
e 15 102
e 15 129
e 15 144
e 16 17
e 16 18
e 16 19
e 16 20
e 16 21
e 16 22
e 16 28
e 16 40
e 16 50
e 16 62
e 16 73
e 16 82
e 16 103
e 16 114
e 16 121
e 16 130
e 16 145
e 17 18
e 17 19
e 17 20
e 17 21
e 17 22
e 17 29
e 17 41
e 17 63
e 17 83
e 17 93
e 17 115
e 17 131
e 17 140
e 17 146
e 18 19
e 18 20
e 18 21
e 18 22
e 18 42
e 18 94
e 18 104
e 18 122
e 18 132
e 19 20
e 19 21
e 19 22
e 19 30
e 19 51
e 19 64
e 19 105
e 19 147
e 20 21
e 20 22
e 20 31
e 20 43
e 20 52
e 20 65
e 20 84
e 20 95
e 20 106
e 20 116
e 20 133
e 21 22
e 21 66
e 21 85
e 21 96
e 21 107
e 21 123
e 22 32
e 22 53
e 22 74
e 22 86
e 22 97
e 22 108
e 22 134
e 22 148
e 23 24
e 23 25
e 23 26
e 23 27
e 23 28
e 23 29
e 23 30
e 23 31
e 23 32
e 23 33
e 23 44
e 23 54
e 23 67
e 23 75
e 23 87
e 23 98
e 23 109
e 23 117
e 24 25
e 24 26
e 24 27
e 24 28
e 24 29
e 24 30
e 24 31
e 24 32
e 24 47
e 24 57
e 24 78
e 24 110
e 24 119
e 24 126
e 25 26
e 25 27
e 25 28
e 25 29
e 25 30
e 25 31
e 25 32
e 25 36
e 25 48
e 25 58
e 25 70
e 25 79
e 25 89
e 25 100
e 25 111
e 25 127
e 25 137
e 26 27
e 26 28
e 26 29
e 26 30
e 26 31
e 26 32
e 26 38
e 26 60
e 26 71
e 26 80
e 26 91
e 26 113
e 26 128
e 26 139
e 26 143
e 27 28
e 27 29
e 27 30
e 27 31
e 27 32
e 27 39
e 27 49
e 27 61
e 27 72
e 27 81
e 27 92
e 27 102
e 27 129
e 27 144
e 28 29
e 28 30
e 28 31
e 28 32
e 28 40
e 28 50
e 28 62
e 28 73
e 28 82
e 28 103
e 28 114
e 28 121
e 28 130
e 28 145
e 29 30
e 29 31
e 29 32
e 29 41
e 29 63
e 29 83
e 29 93
e 29 115
e 29 131
e 29 140
e 29 146
e 30 31
e 30 32
e 30 51
e 30 64
e 30 105
e 30 147
e 31 32
e 31 43
e 31 52
e 31 65
e 31 84
e 31 95
e 31 106
e 31 116
e 31 133
e 32 53
e 32 74
e 32 86
e 32 97
e 32 108
e 32 134
e 32 148
e 33 34
e 33 35
e 33 36
e 33 37
e 33 38
e 33 39
e 33 40
e 33 41
e 33 42
e 33 43
e 33 44
e 33 54
e 33 67
e 33 75
e 33 87
e 33 98
e 33 109
e 33 117
e 34 35
e 34 36
e 34 37
e 34 38
e 34 39
e 34 40
e 34 41
e 34 42
e 34 43
e 34 45
e 34 55
e 34 68
e 34 76
e 34 88
e 34 124
e 34 135
e 35 36
e 35 37
e 35 38
e 35 39
e 35 40
e 35 41
e 35 42
e 35 43
e 35 46
e 35 56
e 35 69
e 35 77
e 35 99
e 35 118
e 35 125
e 35 136
e 35 141
e 36 37
e 36 38
e 36 39
e 36 40
e 36 41
e 36 42
e 36 43
e 36 48
e 36 58
e 36 70
e 36 79
e 36 89
e 36 100
e 36 111
e 36 127
e 36 137
e 37 38
e 37 39
e 37 40
e 37 41
e 37 42
e 37 43
e 37 59
e 37 90
e 37 101
e 37 112
e 37 120
e 37 138
e 37 142
e 38 39
e 38 40
e 38 41
e 38 42
e 38 43
e 38 60
e 38 71
e 38 80
e 38 91
e 38 113
e 38 128
e 38 139
e 38 143
e 39 40
e 39 41
e 39 42
e 39 43
e 39 49
e 39 61
e 39 72
e 39 81
e 39 92
e 39 102
e 39 129
e 39 144
e 40 41
e 40 42
e 40 43
e 40 50
e 40 62
e 40 73
e 40 82
e 40 103
e 40 114
e 40 121
e 40 130
e 40 145
e 41 42
e 41 43
e 41 63
e 41 83
e 41 93
e 41 115
e 41 131
e 41 140
e 41 146
e 42 43
e 42 94
e 42 104
e 42 122
e 42 132
e 43 52
e 43 65
e 43 84
e 43 95
e 43 106
e 43 116
e 43 133
e 44 45
e 44 46
e 44 47
e 44 48
e 44 49
e 44 50
e 44 51
e 44 52
e 44 53
e 44 54
e 44 67
e 44 75
e 44 87
e 44 98
e 44 109
e 44 117
e 45 46
e 45 47
e 45 48
e 45 49
e 45 50
e 45 51
e 45 52
e 45 53
e 45 55
e 45 68
e 45 76
e 45 88
e 45 124
e 45 135
e 46 47
e 46 48
e 46 49
e 46 50
e 46 51
e 46 52
e 46 53
e 46 56
e 46 69
e 46 77
e 46 99
e 46 118
e 46 125
e 46 136
e 46 141
e 47 48
e 47 49
e 47 50
e 47 51
e 47 52
e 47 53
e 47 57
e 47 78
e 47 110
e 47 119
e 47 126
e 48 49
e 48 50
e 48 51
e 48 52
e 48 53
e 48 58
e 48 70
e 48 79
e 48 89
e 48 100
e 48 111
e 48 127
e 48 137
e 49 50
e 49 51
e 49 52
e 49 53
e 49 61
e 49 72
e 49 81
e 49 92
e 49 102
e 49 129
e 49 144
e 50 51
e 50 52
e 50 53
e 50 62
e 50 73
e 50 82
e 50 103
e 50 114
e 50 121
e 50 130
e 50 145
e 51 52
e 51 53
e 51 64
e 51 105
e 51 147
e 52 53
e 52 65
e 52 84
e 52 95
e 52 106
e 52 116
e 52 133
e 53 74
e 53 86
e 53 97
e 53 108
e 53 134
e 53 148
e 54 55
e 54 56
e 54 57
e 54 58
e 54 59
e 54 60
e 54 61
e 54 62
e 54 63
e 54 64
e 54 65
e 54 66
e 54 67
e 54 75
e 54 87
e 54 98
e 54 109
e 54 117
e 55 56
e 55 57
e 55 58
e 55 59
e 55 60
e 55 61
e 55 62
e 55 63
e 55 64
e 55 65
e 55 66
e 55 68
e 55 76
e 55 88
e 55 124
e 55 135
e 56 57
e 56 58
e 56 59
e 56 60
e 56 61
e 56 62
e 56 63
e 56 64
e 56 65
e 56 66
e 56 69
e 56 77
e 56 99
e 56 118
e 56 125
e 56 136
e 56 141
e 57 58
e 57 59
e 57 60
e 57 61
e 57 62
e 57 63
e 57 64
e 57 65
e 57 66
e 57 78
e 57 110
e 57 119
e 57 126
e 58 59
e 58 60
e 58 61
e 58 62
e 58 63
e 58 64
e 58 65
e 58 66
e 58 70
e 58 79
e 58 89
e 58 100
e 58 111
e 58 127
e 58 137
e 59 60
e 59 61
e 59 62
e 59 63
e 59 64
e 59 65
e 59 66
e 59 90
e 59 101
e 59 112
e 59 120
e 59 138
e 59 142
e 60 61
e 60 62
e 60 63
e 60 64
e 60 65
e 60 66
e 60 71
e 60 80
e 60 91
e 60 113
e 60 128
e 60 139
e 60 143
e 61 62
e 61 63
e 61 64
e 61 65
e 61 66
e 61 72
e 61 81
e 61 92
e 61 102
e 61 129
e 61 144
e 62 63
e 62 64
e 62 65
e 62 66
e 62 73
e 62 82
e 62 103
e 62 114
e 62 121
e 62 130
e 62 145
e 63 64
e 63 65
e 63 66
e 63 83
e 63 93
e 63 115
e 63 131
e 63 140
e 63 146
e 64 65
e 64 66
e 64 105
e 64 147
e 65 66
e 65 84
e 65 95
e 65 106
e 65 116
e 65 133
e 66 85
e 66 96
e 66 107
e 66 123
e 67 68
e 67 69
e 67 70
e 67 71
e 67 72
e 67 73
e 67 74
e 67 75
e 67 87
e 67 98
e 67 109
e 67 117
e 68 69
e 68 70
e 68 71
e 68 72
e 68 73
e 68 74
e 68 76
e 68 88
e 68 124
e 68 135
e 69 70
e 69 71
e 69 72
e 69 73
e 69 74
e 69 77
e 69 99
e 69 118
e 69 125
e 69 136
e 69 141
e 70 71
e 70 72
e 70 73
e 70 74
e 70 79
e 70 89
e 70 100
e 70 111
e 70 127
e 70 137
e 71 72
e 71 73
e 71 74
e 71 80
e 71 91
e 71 113
e 71 128
e 71 139
e 71 143
e 72 73
e 72 74
e 72 81
e 72 92
e 72 102
e 72 129
e 72 144
e 73 74
e 73 82
e 73 103
e 73 114
e 73 121
e 73 130
e 73 145
e 74 86
e 74 97
e 74 108
e 74 134
e 74 148
e 75 76
e 75 77
e 75 78
e 75 79
e 75 80
e 75 81
e 75 82
e 75 83
e 75 84
e 75 85
e 75 86
e 75 87
e 75 98
e 75 109
e 75 117
e 76 77
e 76 78
e 76 79
e 76 80
e 76 81
e 76 82
e 76 83
e 76 84
e 76 85
e 76 86
e 76 88
e 76 124
e 76 135
e 77 78
e 77 79
e 77 80
e 77 81
e 77 82
e 77 83
e 77 84
e 77 85
e 77 86
e 77 99
e 77 118
e 77 125
e 77 136
e 77 141
e 78 79
e 78 80
e 78 81
e 78 82
e 78 83
e 78 84
e 78 85
e 78 86
e 78 110
e 78 119
e 78 126
e 79 80
e 79 81
e 79 82
e 79 83
e 79 84
e 79 85
e 79 86
e 79 89
e 79 100
e 79 111
e 79 127
e 79 137
e 80 81
e 80 82
e 80 83
e 80 84
e 80 85
e 80 86
e 80 91
e 80 113
e 80 128
e 80 139
e 80 143
e 81 82
e 81 83
e 81 84
e 81 85
e 81 86
e 81 92
e 81 102
e 81 129
e 81 144
e 82 83
e 82 84
e 82 85
e 82 86
e 82 103
e 82 114
e 82 121
e 82 130
e 82 145
e 83 84
e 83 85
e 83 86
e 83 93
e 83 115
e 83 131
e 83 140
e 83 146
e 84 85
e 84 86
e 84 95
e 84 106
e 84 116
e 84 133
e 85 86
e 85 96
e 85 107
e 85 123
e 86 97
e 86 108
e 86 134
e 86 148
e 87 88
e 87 89
e 87 90
e 87 91
e 87 92
e 87 93
e 87 94
e 87 95
e 87 96
e 87 97
e 87 98
e 87 109
e 87 117
e 88 89
e 88 90
e 88 91
e 88 92
e 88 93
e 88 94
e 88 95
e 88 96
e 88 97
e 88 124
e 88 135
e 89 90
e 89 91
e 89 92
e 89 93
e 89 94
e 89 95
e 89 96
e 89 97
e 89 100
e 89 111
e 89 127
e 89 137
e 90 91
e 90 92
e 90 93
e 90 94
e 90 95
e 90 96
e 90 97
e 90 101
e 90 112
e 90 120
e 90 138
e 90 142
e 91 92
e 91 93
e 91 94
e 91 95
e 91 96
e 91 97
e 91 113
e 91 128
e 91 139
e 91 143
e 92 93
e 92 94
e 92 95
e 92 96
e 92 97
e 92 102
e 92 129
e 92 144
e 93 94
e 93 95
e 93 96
e 93 97
e 93 115
e 93 131
e 93 140
e 93 146
e 94 95
e 94 96
e 94 97
e 94 104
e 94 122
e 94 132
e 95 96
e 95 97
e 95 106
e 95 116
e 95 133
e 96 97
e 96 107
e 96 123
e 97 108
e 97 134
e 97 148
e 98 99
e 98 100
e 98 101
e 98 102
e 98 103
e 98 104
e 98 105
e 98 106
e 98 107
e 98 108
e 98 109
e 98 117
e 99 100
e 99 101
e 99 102
e 99 103
e 99 104
e 99 105
e 99 106
e 99 107
e 99 108
e 99 118
e 99 125
e 99 136
e 99 141
e 100 101
e 100 102
e 100 103
e 100 104
e 100 105
e 100 106
e 100 107
e 100 108
e 100 111
e 100 127
e 100 137
e 101 102
e 101 103
e 101 104
e 101 105
e 101 106
e 101 107
e 101 108
e 101 112
e 101 120
e 101 138
e 101 142
e 102 103
e 102 104
e 102 105
e 102 106
e 102 107
e 102 108
e 102 129
e 102 144
e 103 104
e 103 105
e 103 106
e 103 107
e 103 108
e 103 114
e 103 121
e 103 130
e 103 145
e 104 105
e 104 106
e 104 107
e 104 108
e 104 122
e 104 132
e 105 106
e 105 107
e 105 108
e 105 147
e 106 107
e 106 108
e 106 116
e 106 133
e 107 108
e 107 123
e 108 134
e 108 148
e 109 110
e 109 111
e 109 112
e 109 113
e 109 114
e 109 115
e 109 116
e 109 117
e 110 111
e 110 112
e 110 113
e 110 114
e 110 115
e 110 116
e 110 119
e 110 126
e 111 112
e 111 113
e 111 114
e 111 115
e 111 116
e 111 127
e 111 137
e 112 113
e 112 114
e 112 115
e 112 116
e 112 120
e 112 138
e 112 142
e 113 114
e 113 115
e 113 116
e 113 128
e 113 139
e 113 143
e 114 115
e 114 116
e 114 121
e 114 130
e 114 145
e 115 116
e 115 131
e 115 140
e 115 146
e 116 133
e 117 118
e 117 119
e 117 120
e 117 121
e 117 122
e 117 123
e 118 119
e 118 120
e 118 121
e 118 122
e 118 123
e 118 125
e 118 136
e 118 141
e 119 120
e 119 121
e 119 122
e 119 123
e 119 126
e 120 121
e 120 122
e 120 123
e 120 138
e 120 142
e 121 122
e 121 123
e 121 130
e 121 145
e 122 123
e 122 132
e 124 125
e 124 126
e 124 127
e 124 128
e 124 129
e 124 130
e 124 131
e 124 132
e 124 133
e 124 134
e 124 135
e 125 126
e 125 127
e 125 128
e 125 129
e 125 130
e 125 131
e 125 132
e 125 133
e 125 134
e 125 136
e 125 141
e 126 127
e 126 128
e 126 129
e 126 130
e 126 131
e 126 132
e 126 133
e 126 134
e 127 128
e 127 129
e 127 130
e 127 131
e 127 132
e 127 133
e 127 134
e 127 137
e 128 129
e 128 130
e 128 131
e 128 132
e 128 133
e 128 134
e 128 139
e 128 143
e 129 130
e 129 131
e 129 132
e 129 133
e 129 134
e 129 144
e 130 131
e 130 132
e 130 133
e 130 134
e 130 145
e 131 132
e 131 133
e 131 134
e 131 140
e 131 146
e 132 133
e 132 134
e 133 134
e 134 148
e 135 136
e 135 137
e 135 138
e 135 139
e 135 140
e 136 137
e 136 138
e 136 139
e 136 140
e 136 141
e 137 138
e 137 139
e 137 140
e 138 139
e 138 140
e 138 142
e 139 140
e 139 143
e 140 146
e 141 142
e 141 143
e 141 144
e 141 145
e 141 146
e 141 147
e 141 148
e 142 143
e 142 144
e 142 145
e 142 146
e 142 147
e 142 148
e 143 144
e 143 145
e 143 146
e 143 147
e 143 148
e 144 145
e 144 146
e 144 147
e 144 148
e 145 146
e 145 147
e 145 148
e 146 147
e 146 148
e 147 148
